50
254 2540 3519 254 1955 1955 1778 1955 508 1778 1778 254 2032 2346 1173 254 762 2286 2032 3910 391 2346 782 3128 1524 2737 782 391 2737 508 1778 2540 1778 2540 1955 3910 1778 2737 1270 3128 762 1016 2737 2286 2737 508 762 1016 391 2286 
497 4970 1008 497 560 560 3479 560 994 3479 3479 497 3976 672 336 497 1491 4473 3976 1120 112 672 224 896 2982 784 224 112 784 994 3479 4970 3479 4970 560 1120 3479 784 2485 896 1491 1988 784 4473 784 994 1491 1988 112 4473 
42853
